language ESSENCE' 1.0
$ minion Nodes: 1
$ minion TotalTime: 0.000638
$ Savile Row TotalTime: 0.404
letting pain_tuple2 be [8, 8;int(1..2)]
letting pain_tuple3_SetOccurrence be [[true;int(9)], 
[true;int(9)];int(1..2)]
letting pain_tuple1_SetOccurrence be [[true;int(5)], 
[true;int(5)];int(1..2)]
